(set-logic QF_S)
(declare-fun var0 () String)
(assert (str.in.re var0 (re.++ (re.union (re.+ (str.to.re "00")) (re.+ (str.to.re "11"))) (re.++ (re.+ (re.* (str.to.re "222"))) (re.++ (re.+ (re.* (str.to.re "3"))) (re.++ (re.+ (re.union (str.to.re "444") (str.to.re "55"))) (re.++ (re.+ (re.* (str.to.re "6"))) (re.++ (re.+ (re.union (str.to.re "777") (str.to.re "888"))) (re.++ (re.* (re.+ (str.to.re "9"))) (re.++ (re.+ (re.+ (str.to.re "aaa"))) (re.++ (re.* (re.* (str.to.re "bb"))) (re.++ (re.* (re.union (str.to.re "cc") (str.to.re "ddd"))) (re.++ (re.* (re.* (str.to.re "eee"))) (re.++ (re.+ (re.+ (str.to.re "fff"))) (re.++ (re.union (re.* (str.to.re "ggg")) (re.* (str.to.re "h"))) (re.++ (re.+ (re.+ (str.to.re "iii"))) (re.++ (re.+ (re.* (str.to.re "jj"))) (re.++ (re.* (re.union (str.to.re "k") (str.to.re "ll"))) (re.++ (re.* (re.+ (str.to.re "mm"))) (re.++ (re.* (re.+ (str.to.re "nn"))) (re.++ (re.* (re.* (str.to.re "ooo"))) (re.++ (re.union (re.* (str.to.re "pp")) (re.* (str.to.re "qq"))) (re.++ (re.* (re.union (str.to.re "rr") (str.to.re "sss"))) (re.++ (re.* (re.union (str.to.re "t") (str.to.re "uu"))) (re.++ (re.union (re.* (str.to.re "vv")) (re.* (str.to.re "w"))) (re.++ (re.* (re.union (str.to.re "xxx") (str.to.re "yy"))) (re.++ (re.union (re.+ (str.to.re "zz")) (re.+ (str.to.re "A"))) (re.++ (re.* (re.union (str.to.re "BB") (str.to.re "C"))) (re.++ (re.union (re.* (str.to.re "DDD")) (re.* (str.to.re "EE"))) (re.++ (re.+ (re.union (str.to.re "FF") (str.to.re "GGG"))) (re.++ (re.* (re.union (str.to.re "HHH") (str.to.re "II"))) (re.++ (re.* (re.+ (str.to.re "JJJ"))) (re.++ (re.* (re.+ (str.to.re "KKK"))) (re.++ (re.+ (re.union (str.to.re "LLL") (str.to.re "MM"))) (re.++ (re.* (re.+ (str.to.re "NN"))) (re.++ (re.+ (re.+ (str.to.re "OOO"))) (re.++ (re.* (re.+ (str.to.re "PP"))) (re.++ (re.union (re.* (str.to.re "Q")) (re.* (str.to.re "RR"))) (re.++ (re.+ (re.+ (str.to.re "S"))) (re.++ (re.union (re.union (str.to.re "TTT") (str.to.re "UU")) (re.union (str.to.re "VV") (str.to.re "W"))) (re.++ (re.+ (re.union (str.to.re "X") (str.to.re "YYY"))) (re.++ (re.union (re.+ (str.to.re "ZZZ")) (re.+ (str.to.re "!!"))) (re.++ (re.* (re.union (str.to.re """""""") (str.to.re "###"))) (re.++ (re.* (re.* (str.to.re "$$"))) (re.++ (re.union (re.* (str.to.re "%")) (re.* (str.to.re "&&"))) (re.++ (re.+ (re.union (str.to.re "'''") (str.to.re "((("))) (re.++ (re.+ (re.* (str.to.re ")))"))) (re.++ (re.* (re.+ (str.to.re "**"))) (re.++ (re.* (re.+ (str.to.re "+++"))) (re.++ (re.union (re.union (str.to.re ",,") (str.to.re "--")) (re.union (str.to.re ".") (str.to.re "/"))) (re.++ (re.union (re.union (str.to.re ":::") (str.to.re ";")) (re.union (str.to.re "<") (str.to.re "="))) (re.++ (re.union (re.+ (str.to.re ">")) (re.+ (str.to.re "?"))) (re.++ (re.+ (re.union (str.to.re "@@") (str.to.re "["))) (re.++ (re.union (re.union (str.to.re "\\\\") (str.to.re "]")) (re.union (str.to.re "^^^") (str.to.re "__"))) (re.++ (re.union (re.* (str.to.re "``")) (re.* (str.to.re "{{"))) (re.++ (re.* (re.* (str.to.re "|||"))) (re.++ (re.union (re.+ (str.to.re "}")) (re.+ (str.to.re "~~~"))) (re.++ (re.+ (re.+ (str.to.re "00"))) (re.++ (re.* (re.union (str.to.re "111") (str.to.re "22"))) (re.++ (re.* (re.+ (str.to.re "3"))) (re.++ (re.+ (re.union (str.to.re "4") (str.to.re "55"))) (re.++ (re.+ (re.+ (str.to.re "666"))) (re.++ (re.union (re.* (str.to.re "7")) (re.* (str.to.re "8"))) (re.++ (re.+ (re.+ (str.to.re "9"))) (re.++ (re.+ (re.union (str.to.re "aaa") (str.to.re "b"))) (re.union (re.* (str.to.re "c")) (re.* (str.to.re "ddd"))))))))))))))))))))))))))))))))))))))))))))))))))))))))))))))))))))
(check-sat)